language ESSENCE' 1.0

letting numItems be 10
letting impacts_Function1D be [10, 12, 8, 15, 7, 6, 16, 14, 20, 9; int(1..10)]
letting weights_Function1D be [2, 4, 1, 6, 1, 1, 8, 5, 10, 2; int(1..10)]
letting weightLimit be 20
letting volumes_Function1D be [3, 5, 2, 12, 1, 1, 20, 6, 25, 3; int(1..10)]
letting volumeLimit be 40
letting fin1 be 10
letting fin2 be 1
letting fin3 be 10
letting fin4 be 10
letting fin5 be 1
letting fin6 be 25
letting fin7 be 10
letting fin8 be 6
letting fin9 be 20
